\ Model MILP Energy Allocation
\ LP format - for model browsing. Use MPS format to capture full model detail.
\ Signature: 0x949ffbfee8cd9b06
Minimize
  S[0,0,1] + S[0,1,1] + D[0,0,1] + D[0,1,1] + D[0,2,1]
Subject To
 R0: w[0,0] + w[0,1] + w[0,2] = 1
 R1: w[0,0] <= 1
 R2: w[0,1] <= 1
 R3: w[0,2] <= 1
 R4: w[1,0] + w[1,1] + w[1,2] = 1
 R5: w[1,0] <= 0
 R6: w[1,1] <= 0
 R7: w[1,2] <= 1
 R8: S[0,0,0] = 100
 R9: S[0,1,0] = 25
 R10: D[0,0,0] = 15
 R11: D[0,1,0] = 50
 R12: D[0,2,0] = 5
 flow_dem_0_0_0_1: - D[0,0,0] + f[0,0,0,1] <= 0
 flow_dem_0_0_1_1: - D[0,1,0] + f[0,0,1,1] <= 0
 flow_dem_0_0_2_1: - D[0,2,0] + f[0,0,2,1] <= 0
 flow_dem_0_1_0_1: - D[0,0,0] + f[0,1,0,1] <= 0
 flow_dem_0_1_1_1: - D[0,1,0] + f[0,1,1,1] <= 0
 flow_dem_0_1_2_1: - D[0,2,0] + f[0,1,2,1] <= 0
 sup_update_0_0_1: - S[0,0,0] + S[0,0,1] + f[0,0,0,1] + f[0,0,1,1]
   + f[0,0,2,1] = 0
 sup_update_0_1_1: - S[0,1,0] + S[0,1,1] + f[0,1,0,1] + f[0,1,1,1]
   + f[0,1,2,1] = 0
 dem_update_0_0_1: - D[0,0,0] + D[0,0,1] + f[0,0,0,1] + f[0,1,0,1] = 0
 dem_update_0_1_1: - D[0,1,0] + D[0,1,1] + f[0,0,1,1] + f[0,1,1,1] = 0
 dem_update_0_2_1: - D[0,2,0] + D[0,2,1] + f[0,0,2,1] + f[0,1,2,1] = 0
 flow_sup_0_0_0_1: f[0,0,0,1] + [ - w[0,0] * S[0,0,0] ] <= 0
 flow_sup_0_0_1_1: f[0,0,1,1] + [ - w[0,1] * S[0,0,0] ] <= 0
 flow_sup_0_0_2_1: f[0,0,2,1] + [ - w[0,2] * S[0,0,0] ] <= 0
 flow_sup_0_1_0_1: f[0,1,0,1] + [ ] <= 0
 flow_sup_0_1_1_1: f[0,1,1,1] + [ ] <= 0
 flow_sup_0_1_2_1: f[0,1,2,1] + [ - w[1,2] * S[0,1,0] ] <= 0
Bounds
 w[0,0] <= 1
 w[0,1] <= 1
 w[0,2] <= 1
 w[1,0] <= 1
 w[1,1] <= 1
 w[1,2] <= 1
End
